# 61253
param k := 6;
param n := 50;
param s := 1;
set E :=  (0,3) (0,15) (0,16) (0,24) (1,3) (1,10) (1,21) (1,34) (1,48) (2,27) (3,14) (4,37) (4,49) (5,22) (5,42) (6,43) (7,21) (7,30) (8,9) (8,31) (9,29) (10,11) (10,15) (10,30) (10,47) (11,31) (11,36) (12,44) (13,26) (14,18) (14,23) (14,27) (14,36) (14,39) (14,49) (15,20) (15,25) (15,26) (15,44) (15,48) (17,22) (17,46) (18,20) (18,48) (19,23) (19,44) (20,32) (20,45) (21,38) (24,38) (24,43) (25,41) (27,31) (28,40) (28,42) (28,48) (29,31) (30,38) (30,39) (32,46) (33,42) (35,43) (36,48) (37,38) (40,45) (40,48) (41,49);